FILENAME:   /home/mcs001/s132664/testsets/IP/miplib2017/drayage-100-23.mps.gz
SETTINGS:   settings_isopr_ostrowskidynamicbranching_avoidsubtreenodes
TIMELIMIT:  7200
OUTPUTNAME: final_miplib_symretope_if_extended_generating_set_cpx_v802__settings_isopr_ostrowskidynamicbranching_avoidsubtreenodes__4__
BINNAME:    bin/symmetries.linux.x86_64.gnu.opt.cpx
BASENAME:   drayage-100-23.mps.gz
SEED:       4
@01 /home/mcs001/s132664/testsets/IP/miplib2017/drayage-100-23.mps.gz ===========
@02 drayage-100-23.mps.gz
@03 1686581385
SCIP version 8.0.2 [precision: 8 byte] [memory: block] [mode: optimized] [LP solver: CPLEX 20.1.0.0] [GitHash: 5f0473c]
Copyright (C) 2002-2022 Konrad-Zuse-Zentrum fuer Informationstechnik Berlin (ZIB)

Symmetry handling routines - (c) Marc Pfetsch, Thomas Rehn, Christopher Hojny.
[GitHash: a1587cb]


Turned off presolver <gateextraction>.
reading parameter file <../settings/settings_isopr_ostrowskidynamicbranching_avoidsubtreenodes.set> ...

Changed settings:
limits/time = 7200
limits/restarts = 0
randomization/randomseedshift = 4
constraints/orbitope/sepafreq = -1
constraints/orbitope/propfreq = 1
presolving/gateextraction/maxrounds = 0
propagating/isoprune/avoidsubtreenodes = TRUE
useisoprune = TRUE


solving problem ...

original problem has 11090 variables (11025 bin, 0 int, 0 impl, 65 cont) and 4630 constraints
presolving:
(round 1, fast)       0 del vars, 260 del conss, 0 add conss, 130 chg bounds, 0 chg sides, 0 chg coeffs, 0 upgd conss, 0 impls, 210 clqs
(round 2, fast)       1116 del vars, 1433 del conss, 0 add conss, 1246 chg bounds, 3695 chg sides, 4046 chg coeffs, 0 upgd conss, 0 impls, 564 clqs
(round 3, medium)     1144 del vars, 1433 del conss, 0 add conss, 1246 chg bounds, 3695 chg sides, 4046 chg coeffs, 0 upgd conss, 0 impls, 536 clqs
(round 4, fast)       1144 del vars, 1461 del conss, 0 add conss, 1246 chg bounds, 3695 chg sides, 4046 chg coeffs, 0 upgd conss, 0 impls, 536 clqs
(round 5, exhaustive) 1144 del vars, 1461 del conss, 0 add conss, 1246 chg bounds, 3695 chg sides, 4046 chg coeffs, 536 upgd conss, 0 impls, 536 clqs
(round 6, exhaustive) 1172 del vars, 1461 del conss, 0 add conss, 1246 chg bounds, 3695 chg sides, 4046 chg coeffs, 536 upgd conss, 0 impls, 534 clqs
(round 7, fast)       1172 del vars, 1489 del conss, 0 add conss, 1246 chg bounds, 3695 chg sides, 4046 chg coeffs, 536 upgd conss, 0 impls, 534 clqs
(round 8, fast)       1173 del vars, 1500 del conss, 0 add conss, 1246 chg bounds, 3748 chg sides, 4110 chg coeffs, 536 upgd conss, 0 impls, 550 clqs
(round 9, exhaustive) 1173 del vars, 1500 del conss, 0 add conss, 1246 chg bounds, 3748 chg sides, 4110 chg coeffs, 552 upgd conss, 0 impls, 550 clqs
(round 10, exhaustive) 1205 del vars, 1500 del conss, 0 add conss, 1246 chg bounds, 3748 chg sides, 4110 chg coeffs, 552 upgd conss, 0 impls, 547 clqs
(round 11, fast)       1205 del vars, 1532 del conss, 0 add conss, 1246 chg bounds, 3748 chg sides, 4110 chg coeffs, 552 upgd conss, 0 impls, 547 clqs
(round 12, fast)       1206 del vars, 1540 del conss, 0 add conss, 1246 chg bounds, 3806 chg sides, 4180 chg coeffs, 552 upgd conss, 0 impls, 564 clqs
(round 13, exhaustive) 1206 del vars, 1540 del conss, 0 add conss, 1246 chg bounds, 3806 chg sides, 4180 chg coeffs, 569 upgd conss, 0 impls, 564 clqs
(round 14, exhaustive) 1245 del vars, 1540 del conss, 0 add conss, 1246 chg bounds, 3806 chg sides, 4180 chg coeffs, 569 upgd conss, 0 impls, 559 clqs
(round 15, fast)       1245 del vars, 1579 del conss, 0 add conss, 1246 chg bounds, 3806 chg sides, 4180 chg coeffs, 569 upgd conss, 0 impls, 559 clqs
(round 16, fast)       1246 del vars, 1585 del conss, 0 add conss, 1246 chg bounds, 3869 chg sides, 4253 chg coeffs, 569 upgd conss, 0 impls, 579 clqs
(round 17, exhaustive) 1246 del vars, 1585 del conss, 0 add conss, 1246 chg bounds, 3869 chg sides, 4253 chg coeffs, 589 upgd conss, 0 impls, 579 clqs
(round 18, exhaustive) 1288 del vars, 1585 del conss, 0 add conss, 1246 chg bounds, 3869 chg sides, 4253 chg coeffs, 589 upgd conss, 0 impls, 571 clqs
(round 19, fast)       1288 del vars, 1627 del conss, 0 add conss, 1246 chg bounds, 3869 chg sides, 4253 chg coeffs, 589 upgd conss, 0 impls, 571 clqs
(round 20, exhaustive) 1330 del vars, 1627 del conss, 0 add conss, 1246 chg bounds, 3869 chg sides, 4253 chg coeffs, 589 upgd conss, 0 impls, 565 clqs
(round 21, fast)       1330 del vars, 1669 del conss, 0 add conss, 1246 chg bounds, 3869 chg sides, 4253 chg coeffs, 589 upgd conss, 0 impls, 565 clqs
(round 22, exhaustive) 1375 del vars, 1669 del conss, 0 add conss, 1246 chg bounds, 3869 chg sides, 4253 chg coeffs, 589 upgd conss, 0 impls, 555 clqs
(round 23, fast)       1375 del vars, 1714 del conss, 0 add conss, 1246 chg bounds, 3869 chg sides, 4253 chg coeffs, 589 upgd conss, 0 impls, 555 clqs
(round 24, fast)       1376 del vars, 1716 del conss, 0 add conss, 1246 chg bounds, 3929 chg sides, 4323 chg coeffs, 589 upgd conss, 0 impls, 573 clqs
(round 25, medium)     1402 del vars, 1716 del conss, 0 add conss, 1246 chg bounds, 3929 chg sides, 4323 chg coeffs, 589 upgd conss, 0 impls, 547 clqs
(round 26, fast)       1402 del vars, 1742 del conss, 0 add conss, 1246 chg bounds, 3929 chg sides, 4323 chg coeffs, 589 upgd conss, 0 impls, 547 clqs
(round 27, exhaustive) 1402 del vars, 1742 del conss, 0 add conss, 1246 chg bounds, 3929 chg sides, 4323 chg coeffs, 601 upgd conss, 0 impls, 547 clqs
(round 28, exhaustive) 1446 del vars, 1742 del conss, 0 add conss, 1246 chg bounds, 3929 chg sides, 4323 chg coeffs, 601 upgd conss, 0 impls, 538 clqs
(round 29, fast)       1446 del vars, 1786 del conss, 0 add conss, 1246 chg bounds, 3929 chg sides, 4323 chg coeffs, 601 upgd conss, 0 impls, 538 clqs
(round 30, fast)       1447 del vars, 1788 del conss, 0 add conss, 1246 chg bounds, 3989 chg sides, 4394 chg coeffs, 601 upgd conss, 0 impls, 556 clqs
(round 31, exhaustive) 1447 del vars, 1788 del conss, 0 add conss, 1246 chg bounds, 3989 chg sides, 4394 chg coeffs, 619 upgd conss, 0 impls, 556 clqs
(round 32, exhaustive) 1488 del vars, 1788 del conss, 0 add conss, 1246 chg bounds, 3989 chg sides, 4394 chg coeffs, 619 upgd conss, 0 impls, 545 clqs
(round 33, fast)       1488 del vars, 1829 del conss, 0 add conss, 1246 chg bounds, 3989 chg sides, 4394 chg coeffs, 619 upgd conss, 0 impls, 545 clqs
(round 34, exhaustive) 1527 del vars, 1829 del conss, 0 add conss, 1246 chg bounds, 3989 chg sides, 4394 chg coeffs, 619 upgd conss, 0 impls, 541 clqs
(round 35, fast)       1527 del vars, 1868 del conss, 0 add conss, 1246 chg bounds, 3989 chg sides, 4394 chg coeffs, 619 upgd conss, 0 impls, 541 clqs
(round 36, exhaustive) 1572 del vars, 1868 del conss, 0 add conss, 1246 chg bounds, 3989 chg sides, 4394 chg coeffs, 619 upgd conss, 0 impls, 526 clqs
(round 37, fast)       1572 del vars, 1913 del conss, 0 add conss, 1246 chg bounds, 3989 chg sides, 4394 chg coeffs, 619 upgd conss, 0 impls, 526 clqs
(round 38, fast)       1573 del vars, 1914 del conss, 0 add conss, 1246 chg bounds, 4039 chg sides, 4452 chg coeffs, 619 upgd conss, 0 impls, 543 clqs
(round 39, exhaustive) 1573 del vars, 1914 del conss, 0 add conss, 1246 chg bounds, 4039 chg sides, 4452 chg coeffs, 636 upgd conss, 0 impls, 543 clqs
(round 40, exhaustive) 1617 del vars, 1914 del conss, 0 add conss, 1246 chg bounds, 4039 chg sides, 4452 chg coeffs, 636 upgd conss, 0 impls, 531 clqs
(round 41, fast)       1617 del vars, 1958 del conss, 0 add conss, 1246 chg bounds, 4039 chg sides, 4452 chg coeffs, 636 upgd conss, 0 impls, 531 clqs
(round 42, exhaustive) 1660 del vars, 1958 del conss, 0 add conss, 1246 chg bounds, 4039 chg sides, 4452 chg coeffs, 636 upgd conss, 0 impls, 522 clqs
(round 43, fast)       1660 del vars, 2001 del conss, 0 add conss, 1246 chg bounds, 4039 chg sides, 4452 chg coeffs, 636 upgd conss, 0 impls, 522 clqs
(round 44, exhaustive) 1705 del vars, 2001 del conss, 0 add conss, 1246 chg bounds, 4039 chg sides, 4452 chg coeffs, 636 upgd conss, 0 impls, 509 clqs
(round 45, fast)       1705 del vars, 2046 del conss, 0 add conss, 1246 chg bounds, 4039 chg sides, 4452 chg coeffs, 636 upgd conss, 0 impls, 509 clqs
(round 46, exhaustive) 1748 del vars, 2046 del conss, 0 add conss, 1246 chg bounds, 4039 chg sides, 4452 chg coeffs, 636 upgd conss, 0 impls, 498 clqs
(round 47, fast)       1748 del vars, 2089 del conss, 0 add conss, 1246 chg bounds, 4039 chg sides, 4452 chg coeffs, 636 upgd conss, 0 impls, 498 clqs
(round 48, exhaustive) 1787 del vars, 2089 del conss, 0 add conss, 1246 chg bounds, 4039 chg sides, 4452 chg coeffs, 636 upgd conss, 0 impls, 493 clqs
(round 49, fast)       1787 del vars, 2128 del conss, 0 add conss, 1246 chg bounds, 4039 chg sides, 4452 chg coeffs, 636 upgd conss, 0 impls, 493 clqs
(round 50, exhaustive) 1838 del vars, 2128 del conss, 0 add conss, 1246 chg bounds, 4039 chg sides, 4452 chg coeffs, 636 upgd conss, 0 impls, 486 clqs
(round 51, fast)       1838 del vars, 2179 del conss, 0 add conss, 1246 chg bounds, 4039 chg sides, 4452 chg coeffs, 636 upgd conss, 0 impls, 486 clqs
(round 52, exhaustive) 1884 del vars, 2179 del conss, 0 add conss, 1246 chg bounds, 4039 chg sides, 4452 chg coeffs, 636 upgd conss, 0 impls, 472 clqs
(round 53, fast)       1884 del vars, 2225 del conss, 0 add conss, 1246 chg bounds, 4039 chg sides, 4452 chg coeffs, 636 upgd conss, 0 impls, 472 clqs
(round 54, exhaustive) 1930 del vars, 2225 del conss, 0 add conss, 1246 chg bounds, 4039 chg sides, 4452 chg coeffs, 636 upgd conss, 0 impls, 458 clqs
(round 55, fast)       1930 del vars, 2271 del conss, 0 add conss, 1246 chg bounds, 4039 chg sides, 4452 chg coeffs, 636 upgd conss, 0 impls, 458 clqs
(round 56, exhaustive) 1974 del vars, 2271 del conss, 0 add conss, 1246 chg bounds, 4039 chg sides, 4452 chg coeffs, 636 upgd conss, 0 impls, 447 clqs
(round 57, fast)       1974 del vars, 2315 del conss, 0 add conss, 1246 chg bounds, 4039 chg sides, 4452 chg coeffs, 636 upgd conss, 0 impls, 447 clqs
(round 58, exhaustive) 2021 del vars, 2315 del conss, 0 add conss, 1246 chg bounds, 4039 chg sides, 4452 chg coeffs, 636 upgd conss, 0 impls, 433 clqs
(round 59, fast)       2021 del vars, 2362 del conss, 0 add conss, 1246 chg bounds, 4039 chg sides, 4452 chg coeffs, 636 upgd conss, 0 impls, 433 clqs
(round 60, exhaustive) 2068 del vars, 2362 del conss, 0 add conss, 1246 chg bounds, 4039 chg sides, 4452 chg coeffs, 636 upgd conss, 0 impls, 417 clqs
(round 61, fast)       2068 del vars, 2409 del conss, 0 add conss, 1246 chg bounds, 4039 chg sides, 4452 chg coeffs, 636 upgd conss, 0 impls, 417 clqs
(round 62, exhaustive) 2118 del vars, 2409 del conss, 0 add conss, 1246 chg bounds, 4039 chg sides, 4452 chg coeffs, 636 upgd conss, 0 impls, 400 clqs
(round 63, fast)       2118 del vars, 2459 del conss, 0 add conss, 1246 chg bounds, 4039 chg sides, 4452 chg coeffs, 636 upgd conss, 0 impls, 400 clqs
(round 64, exhaustive) 2158 del vars, 2459 del conss, 0 add conss, 1246 chg bounds, 4039 chg sides, 4452 chg coeffs, 636 upgd conss, 0 impls, 396 clqs
(round 65, fast)       2158 del vars, 2499 del conss, 0 add conss, 1246 chg bounds, 4039 chg sides, 4452 chg coeffs, 636 upgd conss, 0 impls, 396 clqs
(round 66, exhaustive) 2199 del vars, 2499 del conss, 0 add conss, 1246 chg bounds, 4039 chg sides, 4452 chg coeffs, 636 upgd conss, 0 impls, 391 clqs
(round 67, fast)       2199 del vars, 2540 del conss, 0 add conss, 1246 chg bounds, 4039 chg sides, 4452 chg coeffs, 636 upgd conss, 0 impls, 391 clqs
(round 68, exhaustive) 2227 del vars, 2540 del conss, 0 add conss, 1246 chg bounds, 4039 chg sides, 4452 chg coeffs, 636 upgd conss, 0 impls, 380 clqs
(round 69, fast)       2227 del vars, 2568 del conss, 0 add conss, 1246 chg bounds, 4039 chg sides, 4452 chg coeffs, 636 upgd conss, 0 impls, 380 clqs
(round 70, exhaustive) 2273 del vars, 2568 del conss, 0 add conss, 1246 chg bounds, 4039 chg sides, 4452 chg coeffs, 636 upgd conss, 0 impls, 366 clqs
(round 71, fast)       2273 del vars, 2614 del conss, 0 add conss, 1246 chg bounds, 4039 chg sides, 4452 chg coeffs, 636 upgd conss, 0 impls, 366 clqs
(round 72, exhaustive) 2304 del vars, 2614 del conss, 0 add conss, 1246 chg bounds, 4039 chg sides, 4452 chg coeffs, 636 upgd conss, 0 impls, 363 clqs
(round 73, fast)       2304 del vars, 2645 del conss, 0 add conss, 1246 chg bounds, 4039 chg sides, 4452 chg coeffs, 636 upgd conss, 0 impls, 363 clqs
(round 74, exhaustive) 2357 del vars, 2645 del conss, 0 add conss, 1246 chg bounds, 4039 chg sides, 4452 chg coeffs, 636 upgd conss, 0 impls, 341 clqs
(round 75, fast)       2357 del vars, 2698 del conss, 0 add conss, 1246 chg bounds, 4039 chg sides, 4452 chg coeffs, 636 upgd conss, 0 impls, 341 clqs
(round 76, exhaustive) 2398 del vars, 2698 del conss, 0 add conss, 1246 chg bounds, 4039 chg sides, 4452 chg coeffs, 636 upgd conss, 0 impls, 332 clqs
(round 77, fast)       2398 del vars, 2739 del conss, 0 add conss, 1246 chg bounds, 4039 chg sides, 4452 chg coeffs, 636 upgd conss, 0 impls, 332 clqs
(round 78, exhaustive) 2435 del vars, 2739 del conss, 0 add conss, 1246 chg bounds, 4039 chg sides, 4452 chg coeffs, 636 upgd conss, 0 impls, 312 clqs
(round 79, fast)       2435 del vars, 2776 del conss, 0 add conss, 1246 chg bounds, 4039 chg sides, 4452 chg coeffs, 636 upgd conss, 0 impls, 312 clqs
(round 80, exhaustive) 2490 del vars, 2776 del conss, 0 add conss, 1246 chg bounds, 4039 chg sides, 4452 chg coeffs, 636 upgd conss, 0 impls, 269 clqs
(round 81, fast)       2490 del vars, 2831 del conss, 0 add conss, 1246 chg bounds, 4039 chg sides, 4452 chg coeffs, 636 upgd conss, 0 impls, 269 clqs
(round 82, exhaustive) 2540 del vars, 2831 del conss, 0 add conss, 1246 chg bounds, 4039 chg sides, 4452 chg coeffs, 636 upgd conss, 0 impls, 239 clqs
(round 83, fast)       2540 del vars, 2881 del conss, 0 add conss, 1246 chg bounds, 4039 chg sides, 4452 chg coeffs, 636 upgd conss, 0 impls, 239 clqs
(round 84, exhaustive) 2567 del vars, 2881 del conss, 0 add conss, 1246 chg bounds, 4039 chg sides, 4452 chg coeffs, 636 upgd conss, 0 impls, 238 clqs
(round 85, fast)       2567 del vars, 2908 del conss, 0 add conss, 1246 chg bounds, 4039 chg sides, 4452 chg coeffs, 636 upgd conss, 0 impls, 238 clqs
(round 86, fast)       2568 del vars, 2917 del conss, 0 add conss, 1246 chg bounds, 4078 chg sides, 4503 chg coeffs, 636 upgd conss, 0 impls, 247 clqs
(round 87, exhaustive) 2568 del vars, 2917 del conss, 0 add conss, 1246 chg bounds, 4078 chg sides, 4503 chg coeffs, 645 upgd conss, 0 impls, 247 clqs
(round 88, exhaustive) 2595 del vars, 2917 del conss, 0 add conss, 1246 chg bounds, 4078 chg sides, 4503 chg coeffs, 645 upgd conss, 0 impls, 246 clqs
(round 89, fast)       2595 del vars, 2944 del conss, 0 add conss, 1246 chg bounds, 4078 chg sides, 4503 chg coeffs, 645 upgd conss, 0 impls, 246 clqs
(round 90, fast)       2596 del vars, 2953 del conss, 0 add conss, 1246 chg bounds, 4115 chg sides, 4551 chg coeffs, 645 upgd conss, 0 impls, 255 clqs
(round 91, exhaustive) 2596 del vars, 2953 del conss, 0 add conss, 1246 chg bounds, 4115 chg sides, 4551 chg coeffs, 654 upgd conss, 0 impls, 255 clqs
(round 92, exhaustive) 2624 del vars, 2953 del conss, 0 add conss, 1246 chg bounds, 4115 chg sides, 4551 chg coeffs, 654 upgd conss, 0 impls, 252 clqs
(round 93, fast)       2624 del vars, 2981 del conss, 0 add conss, 1246 chg bounds, 4115 chg sides, 4551 chg coeffs, 654 upgd conss, 0 impls, 252 clqs
(round 94, fast)       2625 del vars, 2988 del conss, 0 add conss, 1246 chg bounds, 4152 chg sides, 4601 chg coeffs, 654 upgd conss, 0 impls, 260 clqs
(round 95, exhaustive) 2625 del vars, 2988 del conss, 0 add conss, 1246 chg bounds, 4152 chg sides, 4601 chg coeffs, 662 upgd conss, 0 impls, 260 clqs
(round 96, exhaustive) 2656 del vars, 2988 del conss, 0 add conss, 1246 chg bounds, 4152 chg sides, 4601 chg coeffs, 662 upgd conss, 0 impls, 256 clqs
(round 97, fast)       2656 del vars, 3019 del conss, 0 add conss, 1246 chg bounds, 4152 chg sides, 4601 chg coeffs, 662 upgd conss, 0 impls, 256 clqs
(round 98, fast)       2657 del vars, 3030 del conss, 0 add conss, 1246 chg bounds, 4183 chg sides, 4642 chg coeffs, 662 upgd conss, 0 impls, 263 clqs
(round 99, exhaustive) 2661 del vars, 3034 del conss, 0 add conss, 1246 chg bounds, 4183 chg sides, 4642 chg coeffs, 662 upgd conss, 0 impls, 259 clqs
(round 100, exhaustive) 2661 del vars, 3034 del conss, 0 add conss, 1246 chg bounds, 4183 chg sides, 4642 chg coeffs, 669 upgd conss, 0 impls, 259 clqs
(round 101, exhaustive) 2711 del vars, 3034 del conss, 0 add conss, 1246 chg bounds, 4183 chg sides, 4642 chg coeffs, 669 upgd conss, 0 impls, 258 clqs
(round 102, fast)       2711 del vars, 3084 del conss, 0 add conss, 1246 chg bounds, 4183 chg sides, 4642 chg coeffs, 669 upgd conss, 0 impls, 258 clqs
   (2.6s) probing: 1000/9881 (10.1%) - 1527 fixings, 0 aggregations, 3828 implications, 0 bound changes
   (2.6s) probing: 1041/9881 (10.5%) - 1527 fixings, 0 aggregations, 4078 implications, 0 bound changes
   (2.6s) probing aborted: 1000/1000 successive useless probings
Required symmetry:			(1 bin, 0 int, 0 cont); (fixed: 0 bin, 1 int, 0 cont)
Time for symmetry detection:		0.09 	(matrix graph, 15197 nodes, 43420 edges)
Number of generators:			78 	(max: 1500)
Log10 of symmetry group order:		95.8
Number of vars moved by some symmetry:	6800
Total time for symmetry detection:	0.11

Turned off presolver <domcol>.
Turned off presolver <components>.

presolving (103 rounds: 103 fast, 52 medium, 50 exhaustive):
 2711 deleted vars, 3084 deleted constraints, 0 added constraints, 1246 tightened bounds, 0 added holes, 4183 changed sides, 4642 changed coefficients
 0 implications, 4336 cliques
presolved problem has 8379 variables (8324 bin, 0 int, 0 impl, 55 cont) and 1547 constraints
    258 constraints of type <setppc>
   1288 constraints of type <linear>
      1 constraints of type <symmetries>
Presolving Time: 2.71

 time | node  | left  |LP iter|LP it/n|mem/heur|mdpt |frac |vars |cons |cols |rows |cuts |confs|strbr|  dualbound   | primalbound  |  gap   
p 3.4s|     1 |     0 |   489 |     - | vbounds|   0 | 140 |8379 |1593 |8379 |1546 |   0 |  49 |   0 | 0.000000e+00 | 9.858249e+05 |    Inf 
  3.5s|     1 |     0 |  1868 |     - |    88M |   0 | 285 |8379 |1593 |8379 |1546 |   0 |  49 |   0 | 7.494521e+04 | 9.858249e+05 |1215.39%
  3.6s|     1 |     0 |  1890 |     - |    91M |   0 | 260 |8379 |1593 |8379 |1497 |   1 |  49 |   0 | 7.531535e+04 | 9.858249e+05 |1208.93%
o 5.0s|     1 |     0 |  6265 |     - |feaspump|   0 |   0 |8379 |1590 |8379 |1497 |   1 |  49 |   0 | 7.531535e+04 | 4.541173e+05 | 502.95%
  5.1s|     1 |     0 |  6265 |     - |    93M |   0 | 260 |8379 |1590 |8379 |1497 |   1 |  49 |   0 | 7.531535e+04 | 4.541173e+05 | 502.95%
  5.4s|     1 |     0 |  6401 |     - |    94M |   0 | 232 |8379 |1584 |8379 |1497 |   1 |  49 |  28 | 7.706517e+04 | 4.541173e+05 | 489.26%
  5.6s|     1 |     0 |  6504 |     - |    94M |   0 | 218 |8379 |1579 |8379 |1497 |   1 |  49 |  51 | 7.946388e+04 | 4.541173e+05 | 471.48%
  5.7s|     1 |     0 |  6572 |     - |    95M |   0 | 218 |8379 |1574 |8379 |1497 |   1 |  49 |  62 | 8.057308e+04 | 4.541173e+05 | 463.61%
  5.9s|     1 |     0 |  6714 |     - |    95M |   0 | 206 |8379 |1569 |8379 |1497 |   1 |  49 |  77 | 8.059588e+04 | 4.541173e+05 | 463.45%
  6.0s|     1 |     0 |  6771 |     - |    95M |   0 | 209 |8379 |1564 |8379 |1497 |   1 |  49 |  92 | 8.086928e+04 | 4.541173e+05 | 461.54%
  6.2s|     1 |     0 |  6840 |     - |    95M |   0 | 199 |8379 |1559 |8379 |1497 |   1 |  49 | 110 | 8.157835e+04 | 4.541173e+05 | 456.66%
  6.3s|     1 |     0 |  6908 |     - |    95M |   0 | 189 |8379 |1554 |8379 |1497 |   1 |  49 | 121 | 8.192732e+04 | 4.541173e+05 | 454.29%
  6.4s|     1 |     0 |  6983 |     - |    95M |   0 | 188 |8379 |1548 |8379 |1497 |   1 |  49 | 133 | 8.192732e+04 | 4.541173e+05 | 454.29%
  6.4s|     1 |     0 |  7019 |     - |    95M |   0 | 192 |8379 |1543 |8379 |1497 |   1 |  49 | 139 | 8.217612e+04 | 4.541173e+05 | 452.61%
  6.4s|     1 |     0 |  7114 |     - |    95M |   0 | 214 |8379 |1538 |8379 |1497 |   1 |  49 | 144 | 8.264152e+04 | 4.541173e+05 | 449.50%
 time | node  | left  |LP iter|LP it/n|mem/heur|mdpt |frac |vars |cons |cols |rows |cuts |confs|strbr|  dualbound   | primalbound  |  gap   
  6.6s|     1 |     0 |  7200 |     - |    95M |   0 | 208 |8379 |1533 |8379 |1497 |   1 |  49 | 163 | 8.295145e+04 | 4.541173e+05 | 447.45%
  6.6s|     1 |     0 |  7274 |     - |    95M |   0 | 205 |8379 |1528 |8379 |1497 |   1 |  49 | 169 | 8.376784e+04 | 4.541173e+05 | 442.11%
  6.7s|     1 |     0 |  7393 |     - |    95M |   0 | 222 |8379 |1523 |8379 |1497 |   1 |  49 | 182 | 8.387313e+04 | 4.541173e+05 | 441.43%
  6.8s|     1 |     0 |  7436 |     - |    95M |   0 | 210 |8379 |1518 |8379 |1497 |   1 |  49 | 192 | 8.444097e+04 | 4.541173e+05 | 437.79%
  6.9s|     1 |     0 |  7599 |     - |    95M |   0 | 203 |8379 |1513 |8379 |1497 |   1 |  49 | 201 | 8.558878e+04 | 4.541173e+05 | 430.58%
  7.0s|     1 |     0 |  7708 |     - |    95M |   0 | 200 |8379 |1508 |8379 |1497 |   1 |  49 | 215 | 8.629603e+04 | 4.541173e+05 | 426.23%
  7.1s|     1 |     0 |  7779 |     - |    95M |   0 | 206 |8379 |1503 |8379 |1497 |   1 |  49 | 224 | 8.629603e+04 | 4.541173e+05 | 426.23%
  7.2s|     1 |     0 |  7861 |     - |    95M |   0 | 202 |8379 |1498 |8379 |1497 |   1 |  49 | 234 | 8.658445e+04 | 4.541173e+05 | 424.48%
  7.2s|     1 |     0 |  8009 |     - |    95M |   0 | 198 |8379 |1493 |8379 |1497 |   1 |  49 | 244 | 8.713904e+04 | 4.541173e+05 | 421.14%
  7.3s|     1 |     0 |  8101 |     - |    95M |   0 | 204 |8379 |1488 |8379 |1497 |   1 |  49 | 251 | 8.785230e+04 | 4.541173e+05 | 416.91%
  7.4s|     1 |     0 |  8222 |     - |    95M |   0 | 212 |8379 |1483 |8379 |1497 |   1 |  49 | 262 | 8.864958e+04 | 4.541173e+05 | 412.26%
  7.5s|     1 |     0 |  8327 |     - |    95M |   0 | 208 |8379 |1478 |8379 |1497 |   1 |  49 | 283 | 8.897832e+04 | 4.541173e+05 | 410.37%
  7.6s|     1 |     0 |  8420 |     - |    95M |   0 | 191 |8379 |1473 |8379 |1497 |   1 |  49 | 293 | 8.996576e+04 | 4.541173e+05 | 404.77%
  7.7s|     1 |     0 |  8518 |     - |    95M |   0 | 199 |8379 |1468 |8379 |1497 |   1 |  49 | 303 | 9.055393e+04 | 4.541173e+05 | 401.49%
  7.8s|     1 |     0 |  8677 |     - |    95M |   0 | 173 |8379 |1463 |8379 |1497 |   1 |  49 | 319 | 9.088918e+04 | 4.541173e+05 | 399.64%
 time | node  | left  |LP iter|LP it/n|mem/heur|mdpt |frac |vars |cons |cols |rows |cuts |confs|strbr|  dualbound   | primalbound  |  gap   
  7.9s|     1 |     0 |  8864 |     - |    95M |   0 | 197 |8379 |1458 |8379 |1497 |   1 |  49 | 327 | 9.135647e+04 | 4.541173e+05 | 397.08%
  7.9s|     1 |     0 |  8920 |     - |    95M |   0 | 193 |8379 |1453 |8379 |1497 |   1 |  49 | 335 | 9.135647e+04 | 4.541173e+05 | 397.08%
  8.0s|     1 |     0 |  9027 |     - |    95M |   0 | 175 |8379 |1448 |8379 |1497 |   1 |  49 | 344 | 9.214037e+04 | 4.541173e+05 | 392.85%
  8.1s|     1 |     0 |  9109 |     - |    95M |   0 | 184 |8379 |1443 |8379 |1497 |   1 |  49 | 358 | 9.318643e+04 | 4.541173e+05 | 387.32%
  8.2s|     1 |     0 |  9168 |     - |    95M |   0 | 182 |8379 |1438 |8379 |1497 |   1 |  49 | 367 | 9.318643e+04 | 4.541173e+05 | 387.32%
  8.2s|     1 |     0 |  9246 |     - |    95M |   0 | 175 |8379 |1433 |8379 |1497 |   1 |  49 | 376 | 9.358867e+04 | 4.541173e+05 | 385.23%
  8.3s|     1 |     0 |  9367 |     - |    95M |   0 | 186 |8379 |1417 |8379 |1497 |   1 |  49 | 384 | 9.358867e+04 | 4.541173e+05 | 385.23%
  8.4s|     1 |     0 |  9464 |     - |    95M |   0 | 202 |8379 |1412 |8379 |1497 |   1 |  49 | 398 | 9.358935e+04 | 4.541173e+05 | 385.22%
  8.5s|     1 |     0 |  9550 |     - |    95M |   0 | 181 |8379 |1407 |8379 |1497 |   1 |  49 | 408 | 9.369950e+04 | 4.541173e+05 | 384.65%
  8.6s|     1 |     0 |  9609 |     - |    95M |   0 | 174 |8379 |1402 |8379 |1497 |   1 |  49 | 420 | 9.376873e+04 | 4.541173e+05 | 384.30%
  8.7s|     1 |     0 |  9651 |     - |    95M |   0 | 176 |8379 |1397 |8379 |1497 |   1 |  49 | 429 | 9.489539e+04 | 4.541173e+05 | 378.55%
  8.7s|     1 |     0 |  9678 |     - |    95M |   0 | 172 |8379 |1392 |8379 |1497 |   1 |  49 | 436 | 9.489539e+04 | 4.541173e+05 | 378.55%
  8.7s|     1 |     0 |  9712 |     - |    95M |   0 | 174 |8379 |1387 |8379 |1497 |   1 |  49 | 442 | 9.489539e+04 | 4.541173e+05 | 378.55%
  8.8s|     1 |     0 |  9738 |     - |    95M |   0 | 171 |8379 |1382 |8379 |1497 |   1 |  49 | 453 | 9.489539e+04 | 4.541173e+05 | 378.55%
  8.8s|     1 |     0 |  9777 |     - |    95M |   0 | 166 |8379 |1361 |8379 |1497 |   1 |  49 | 458 | 9.493874e+04 | 4.541173e+05 | 378.33%
 time | node  | left  |LP iter|LP it/n|mem/heur|mdpt |frac |vars |cons |cols |rows |cuts |confs|strbr|  dualbound   | primalbound  |  gap   
  8.9s|     1 |     0 |  9865 |     - |    95M |   0 | 168 |8379 |1356 |8379 |1497 |   1 |  49 | 465 | 9.493874e+04 | 4.541173e+05 | 378.33%
  8.9s|     1 |     0 |  9920 |     - |    95M |   0 | 168 |8379 |1351 |8379 |1497 |   1 |  49 | 474 | 9.493874e+04 | 4.541173e+05 | 378.33%
  9.0s|     1 |     0 |  9977 |     - |    95M |   0 | 166 |8379 |1346 |8379 |1497 |   1 |  49 | 484 | 9.528060e+04 | 4.541173e+05 | 376.61%
  9.1s|     1 |     0 | 10315 |     - |    95M |   0 | 170 |8379 |1341 |8379 |1497 |   1 |  49 | 493 | 9.534879e+04 | 4.541173e+05 | 376.27%
  9.1s|     1 |     0 | 10368 |     - |    95M |   0 | 177 |8379 |1336 |8379 |1497 |   1 |  49 | 505 | 9.537698e+04 | 4.541173e+05 | 376.13%
  9.3s|     1 |     0 | 10430 |     - |    95M |   0 | 179 |8379 |1331 |8379 |1497 |   1 |  49 | 526 | 9.541089e+04 | 4.541173e+05 | 375.96%
  9.4s|     1 |     0 | 10482 |     - |    95M |   0 | 163 |8379 |1326 |8379 |1497 |   1 |  49 | 541 | 9.633789e+04 | 4.541173e+05 | 371.38%
  9.5s|     1 |     0 | 10527 |     - |    95M |   0 | 150 |8379 |1320 |8379 |1497 |   1 |  49 | 552 | 9.731677e+04 | 4.541173e+05 | 366.64%
  9.5s|     1 |     0 | 10577 |     - |    95M |   0 | 145 |8379 |1315 |8379 |1497 |   1 |  49 | 564 | 9.748965e+04 | 4.541173e+05 | 365.81%
  9.6s|     1 |     0 | 10668 |     - |    95M |   0 | 132 |8379 |1310 |8379 |1497 |   1 |  49 | 570 | 9.810733e+04 | 4.541173e+05 | 362.88%
  9.7s|     1 |     0 | 10729 |     - |    95M |   0 | 141 |8379 |1305 |8379 |1497 |   1 |  49 | 588 | 9.897167e+04 | 4.541173e+05 | 358.84%
  9.8s|     1 |     0 | 10794 |     - |    95M |   0 | 147 |8379 |1300 |8379 |1497 |   1 |  49 | 603 | 9.966888e+04 | 4.541173e+05 | 355.63%
  9.9s|     1 |     0 | 10822 |     - |    95M |   0 | 151 |8379 |1295 |8379 |1497 |   1 |  49 | 621 | 9.966888e+04 | 4.541173e+05 | 355.63%
 10.0s|     1 |     0 | 10862 |     - |    95M |   0 | 147 |8379 |1290 |8379 |1497 |   1 |  49 | 637 | 1.002118e+05 | 4.541173e+05 | 353.16%
 10.1s|     1 |     0 | 10891 |     - |    95M |   0 | 148 |8379 |1285 |8379 |1497 |   1 |  49 | 650 | 1.002118e+05 | 4.541173e+05 | 353.16%
 time | node  | left  |LP iter|LP it/n|mem/heur|mdpt |frac |vars |cons |cols |rows |cuts |confs|strbr|  dualbound   | primalbound  |  gap   
 10.1s|     1 |     0 | 10929 |     - |    95M |   0 | 137 |8379 |1280 |8379 |1497 |   1 |  49 | 660 | 1.002118e+05 | 4.541173e+05 | 353.16%
 10.2s|     1 |     0 | 10971 |     - |    95M |   0 | 148 |8379 |1275 |8379 |1497 |   1 |  49 | 669 | 1.006606e+05 | 4.541173e+05 | 351.14%
 10.3s|     1 |     0 | 11012 |     - |    95M |   0 | 136 |8379 |1270 |8379 |1497 |   1 |  49 | 684 | 1.017286e+05 | 4.541173e+05 | 346.40%
 10.3s|     1 |     0 | 11033 |     - |    95M |   0 | 113 |8379 |1265 |8379 |1497 |   1 |  49 | 695 | 1.020272e+05 | 4.541173e+05 | 345.09%
 10.4s|     1 |     0 | 11073 |     - |    95M |   0 | 117 |8379 |1260 |8379 |1497 |   1 |  49 | 702 | 1.020272e+05 | 4.541173e+05 | 345.09%
 10.5s|     1 |     0 | 11150 |     - |    95M |   0 | 114 |8379 |1255 |8379 |1497 |   1 |  49 | 716 | 1.020828e+05 | 4.541173e+05 | 344.85%
 10.6s|     1 |     0 | 11204 |     - |    95M |   0 | 107 |8379 |1251 |8379 |1497 |   1 |  49 | 729 | 1.033339e+05 | 4.541173e+05 | 339.47%
 10.7s|     1 |     2 | 11204 |     - |    95M |   0 | 107 |8379 |1251 |8379 |1497 |   1 |  49 | 745 | 1.033339e+05 | 4.541173e+05 | 339.47%
d11.1s|    52 |    45 | 12817 | 127.0 |fracdivi|  22 |   - |8379 |1251 |8379 |1497 |   0 |  49 | 745 | 1.033339e+05 | 1.144666e+05 |  10.77%
d11.2s|    65 |    58 | 13165 | 106.6 |veclendi|  22 |   - |8379 |1249 |8379 |1497 |   0 |  49 | 745 | 1.033339e+05 | 1.100966e+05 |   6.54%
 11.9s|   100 |    93 | 15076 |  88.2 |    97M |  22 |  73 |8379 |1249 |8379 |1497 |  11 |  49 | 745 | 1.033339e+05 | 1.100966e+05 |   6.54%
d12.0s|   104 |    97 | 15296 |  87.0 |linesear|  22 |   - |8379 |1249 |8379 |1497 |   0 |  49 | 745 | 1.033339e+05 | 1.077038e+05 |   4.23%
 13.0s|   200 |   165 | 18832 |  62.8 |   101M |  24 |  72 |8379 |1266 |8379 |1497 |  19 |  68 | 745 | 1.033339e+05 | 1.077038e+05 |   4.23%
 14.0s|   300 |   243 | 21268 |  49.9 |   103M |  27 |  42 |8379 |1328 |8379 |1497 |  29 | 132 | 745 | 1.033339e+05 | 1.077038e+05 |   4.23%
 15.3s|   400 |   305 | 24217 |  44.8 |   105M |  41 | 114 |8379 |1348 |8379 |1497 |  68 | 165 | 745 | 1.033339e+05 | 1.077038e+05 |   4.23%
 time | node  | left  |LP iter|LP it/n|mem/heur|mdpt |frac |vars |cons |cols |rows |cuts |confs|strbr|  dualbound   | primalbound  |  gap   
 16.9s|   500 |   349 | 28040 |  43.5 |   108M |  41 |  65 |8379 |1347 |8379 |1497 |  88 | 187 | 745 | 1.033339e+05 | 1.077038e+05 |   4.23%
L17.0s|   506 |     0 | 28227 |  43.3 |    rins|  41 |   - |8379 |1347 |8379 |1497 |  88 | 187 | 745 | 1.033339e+05 | 1.033339e+05 |   0.00%

SCIP Status        : problem is solved [optimal solution found]
Solving Time (sec) : 17.02
Solving Nodes      : 506
Primal Bound       : +1.03333874073029e+05 (7 solutions)
Dual Bound         : +1.03333874073029e+05
Gap                : 0.00 %

Number of variables fixed to 0 by isomorphism pruning:	     0
Number of variables fixed to 1 by isomorphism pruning:	     0
@04 1686581402
